%SETS
JOBS     = 1..50;
MACHINES = 1..5;
SPEED    = 1;

time        = array3d(JOBS,MACHINES,1..SPEED,[1, 3, 3, 4, 4, 5, 4, 9, 7, 6, 3, 2, 23, 2, 1, 1, 25, 1, 2, 1, 1, 3, 14, 2, 26, 1, 2, 3, 9, 17, 2, 3, 1, 10, 6, 1, 5, 10, 1, 3, 9, 28, 5, 1, 3, 1, 6, 1, 1, 4, 1, 8, 17, 18, 2, 5, 6, 4, 4, 1, 1, 3, 3, 1, 4, 5, 8, 2, 3, 10, 5, 7, 4, 11, 8, 12, 1, 2, 4, 4, 5, 10, 4, 17, 8, 1, 6, 5, 9, 10, 2, 1, 6, 1, 9, 4, 37, 26, 1, 12, 10, 1, 6, 23, 8, 1, 4, 3, 1, 28, 13, 1, 5, 4, 2, 4, 5, 11, 1, 5, 4, 1, 1, 6, 13, 1, 3, 13, 4, 2, 1, 1, 1, 5, 4, 4, 2, 12, 11, 3, 8, 9, 2, 1, 1, 1, 3, 1, 2, 4, 3, 4, 8, 16, 2, 2, 4, 5, 1, 1, 1, 1, 3, 6, 2, 23, 12, 6, 2, 1, 6, 7, 1, 9, 13, 6, 7, 12, 18, 2, 1, 2, 1, 2, 4, 9, 19, 2, 19, 1, 3, 1, 1, 1, 1, 3, 4, 2, 1, 13, 1, 1, 1, 1, 2, 5, 4, 10, 9, 16, 4, 17, 10, 1, 7, 15, 14, 12, 6, 20, 1, 7, 1, 6, 7, 7, 4, 3, 12, 4, 2, 1, 6, 8, 4, 8, 6, 4, 1, 2, 8, 8, 1, 3, 5, 8, 3, 4, 3, 2]);
energy      = array3d(JOBS,MACHINES,1..SPEED,[99, 97, 97, 96, 96, 95, 96, 91, 93, 94, 97, 98, 79, 98, 99, 99, 77, 99, 98, 99, 99, 97, 86, 98, 77, 99, 98, 97, 91, 84, 98, 97, 99, 90, 94, 99, 95, 90, 99, 97, 91, 75, 95, 99, 97, 99, 94, 99, 99, 96, 99, 92, 84, 83, 98, 95, 94, 96, 96, 99, 99, 97, 97, 99, 96, 95, 92, 98, 97, 90, 95, 93, 96, 89, 92, 88, 99, 98, 96, 96, 95, 90, 96, 84, 92, 99, 94, 95, 91, 90, 98, 99, 94, 99, 91, 96, 69, 77, 99, 88, 90, 99, 94, 79, 92, 99, 96, 97, 99, 75, 87, 99, 95, 96, 98, 96, 95, 89, 99, 95, 96, 99, 99, 94, 87, 99, 97, 87, 96, 98, 99, 99, 99, 95, 96, 96, 98, 88, 89, 97, 92, 91, 98, 99, 99, 99, 97, 99, 98, 96, 97, 96, 92, 85, 98, 98, 96, 95, 99, 99, 99, 99, 97, 94, 98, 79, 88, 94, 98, 99, 94, 93, 99, 91, 87, 94, 93, 88, 83, 98, 99, 98, 99, 98, 96, 91, 82, 98, 82, 99, 97, 99, 99, 99, 99, 97, 96, 98, 99, 87, 99, 99, 99, 99, 98, 95, 96, 90, 91, 85, 96, 84, 90, 99, 93, 86, 86, 88, 94, 81, 99, 93, 99, 94, 93, 93, 96, 97, 88, 96, 98, 99, 94, 92, 96, 92, 94, 96, 99, 98, 92, 92, 99, 97, 95, 92, 97, 96, 97, 98]);
precedence  = array2d(JOBS,MACHINES,[4, 0, 2, 1, 3, 0, 3, 1, 2, 4, 0, 2, 3, 4, 1, 2, 0, 3, 4, 1, 4, 2, 3, 0, 1, 0, 2, 4, 1, 3, 0, 2, 3, 1, 4, 0, 3, 2, 4, 1, 2, 3, 1, 0, 4, 2, 0, 4, 1, 3, 4, 3, 2, 1, 0, 0, 3, 2, 4, 1, 2, 1, 4, 0, 3, 3, 1, 4, 2, 0, 3, 0, 2, 1, 4, 3, 2, 0, 4, 1, 0, 4, 3, 2, 1, 3, 2, 4, 0, 1, 4, 3, 1, 2, 0, 0, 4, 2, 3, 1, 2, 0, 4, 3, 1, 1, 4, 0, 3, 2, 1, 4, 0, 2, 3, 1, 4, 3, 2, 0, 0, 2, 4, 1, 3, 4, 1, 3, 2, 0, 1, 4, 0, 2, 3, 3, 2, 4, 0, 1, 4, 1, 2, 3, 0, 3, 1, 2, 0, 4, 3, 4, 2, 0, 1, 1, 0, 4, 3, 2, 4, 1, 3, 2, 0, 4, 3, 2, 0, 1, 0, 2, 1, 4, 3, 4, 1, 3, 0, 2, 3, 2, 4, 0, 1, 0, 2, 3, 4, 1, 0, 2, 3, 4, 1, 4, 1, 3, 2, 0, 2, 3, 1, 4, 0, 3, 2, 4, 0, 1, 2, 1, 4, 3, 0, 2, 0, 4, 1, 3, 2, 4, 1, 0, 3, 1, 4, 2, 0, 3, 0, 4, 3, 1, 2, 3, 2, 0, 4, 1, 3, 0, 4, 2, 1, 1, 2, 4, 0, 3]);
releaseDate = [20, 80, 30, 10, 50, 70, 80, 20, 10, 70, 90, 70, 30, 60, 20, 40, 90, 50, 80, 50, 50, 60, 30, 20, 0, 70, 30, 100, 100, 100, 10, 70, 100, 50, 50, 40, 10, 100, 0, 10, 10, 10, 100, 80, 50, 30, 40, 20, 40, 40];
dueDate     = [48, 106, 79, 64, 133, 108, 107, 58, 77, 92, 146, 91, 42, 98, 70, 72, 152, 82, 100, 99, 98, 98, 85, 49, 40, 99, 43, 129, 115, 116, 54, 82, 119, 76, 93, 99, 19, 142, 8, 34, 17, 72, 133, 177, 72, 62, 60, 42, 71, 63];